
<<< setup

Tried aggregator 1 time.
LP Presolve eliminated 124 rows and 95 columns.
Reduced LP has 2 rows, 15 columns, and 15 nonzeros.
Presolve time = 0.00 sec. (0.04 ticks)

Iteration log . . .
Iteration:     1   Dual objective     =          1781.318585
main returns 0

<<< main


<<< done

